#ejemplo Roger clase

set NODES := 5 1 2 3 4 6 ;

set ARCS  := (1,3) 
             (1,4)
             (2,3) 
             (2,4)
             (3,6)
             (4,6)
             (5,1)
             (5,2);
             
param s:= 5;
param t:= 6;  
                    
param   b :=
   1    0
   2    0
   3    0
   4    0
   5    4
   6   -4 ;
   
#	   cost	lower upper bound
param: 	c 	l 	u :=
  1 3	1	0	1
  1 4	2	0	1
  2 3	1	0	1
  2 4	2	0	1
  3 6	0	0	2 
  4 6	0	0	2 
  5 1	0	0	2
  5 2	0	0	2 ;
  

